(set-logic HORN)
(declare-fun inv ((_ BitVec 32) (_ BitVec 32) (_ BitVec 32) ) Bool)
(assert (forall ((x (_ BitVec 32)) (y (_ BitVec 32)) (z (_ BitVec 32))) 
       (=> ( and ( = x (_ bv0 32) ) ( = y (_ bv0 32) ) ( = z (_ bv0 32) ) ) (inv x y z))))
(assert (forall ((x (_ BitVec 32)) (y (_ BitVec 32)) (z (_ BitVec 32)) (x! (_ BitVec 32)) (y! (_ BitVec 32)) (z! (_ BitVec 32))) 
       (=> (and (inv x y z) ( and ( = x! ( bvadd x (_ bv1 32) ) ) ( = y! ( bvadd y (_ bv2 32) ) ) ( = z! ( bvadd z (_ bv3 32) ) ) )) (inv x! y! z!))))
(assert (forall ((x (_ BitVec 32)) (y (_ BitVec 32)) (z (_ BitVec 32))) 
       (=> (inv x y z) ( and ( bvuge x (_ bv0 32) ) ( bvuge y (_ bv0 32) ) ( bvuge z (_ bv0 32) ) ))))
(check-sat)
